[0, 0, 47, 66, 69, 0, 68, 0, 56, 66, 87, 74, 0, 71, 0, 0, 0, 24, 0, 68, 0, 91, 73, 0, 25, 27, 8, 0, 0, 92, 0, 53, 62, 0, 0, 0, 45, 0, 17, 93, 95, 0]
[0, 0, 0, 0, 17, 0, 0, 0, 0, 0, 76, 0, 68, 0, 12, 16, 0, 0, 0, 56, 6, 0, 0, 0, 97, 23, 0, 0, 2, 30, 0, 0, 94, 0, 38, 37, 0, 65, 0, 0, 0, 5]
[47, 0, 93, 70, 0, 0, 78, 0, 0, 0, 0, 0, 0, 0, 38, 0, 0, 0, 10, 93, 51, 58, 0, 44, 99, 70, 0, 89, 78, 0, 0, 1, 23, 0, 0, 0, 0, 0, 73, 0, 0, 0]
[66, 0, 70, 0, 0, 0, 0, 73, 0, 0, 0, 5, 8, 0, 0, 97, 0, 0, 0, 0, 0, 23, 0, 0, 71, 0, 0, 0, 56, 0, 0, 98, 87, 0, 0, 0, 0, 0, 18, 98, 0, 0]
[69, 17, 0, 0, 13, 0, 52, 0, 24, 64, 77, 27, 0, 0, 13, 29, 0, 72, 0, 0, 0, 0, 67, 26, 0, 0, 0, 64, 0, 22, 59, 0, 0, 96, 78, 0, 35, 0, 0, 0, 0, 0]
[0, 0, 0, 0, 0, 28, 0, 77, 0, 72, 4, 95, 0, 0, 57, 0, 0, 85, 17, 0, 0, 16, 0, 0, 40, 0, 0, 0, 0, 25, 0, 0, 47, 82, 44, 25, 19, 0, 0, 0, 0, 29]
[68, 0, 78, 0, 52, 0, 0, 0, 0, 0, 75, 86, 95, 19, 70, 0, 0, 8, 0, 0, 94, 0, 0, 50, 38, 28, 44, 22, 0, 12, 90, 24, 69, 0, 0, 0, 0, 0, 35, 70, 30, 0]
[0, 0, 0, 73, 0, 77, 0, 39, 42, 64, 43, 72, 29, 87, 0, 66, 0, 0, 0, 0, 0, 44, 11, 11, 37, 91, 0, 0, 32, 98, 0, 0, 68, 42, 0, 17, 2, 0, 83, 0, 60, 0]
[56, 0, 0, 0, 24, 0, 0, 42, 0, 19, 1, 0, 32, 0, 93, 0, 31, 97, 6, 89, 0, 30, 87, 83, 21, 1, 45, 0, 63, 10, 45, 21, 78, 0, 42, 66, 0, 60, 0, 0, 0, 20]
[66, 0, 0, 0, 64, 72, 0, 64, 19, 0, 0, 0, 0, 0, 55, 0, 3, 0, 7, 0, 0, 0, 91, 0, 47, 61, 0, 0, 0, 48, 5, 11, 51, 0, 23, 88, 0, 0, 0, 0, 80, 0]
[87, 76, 0, 0, 77, 4, 75, 43, 1, 0, 0, 0, 0, 0, 0, 32, 0, 0, 0, 0, 0, 31, 0, 58, 50, 61, 91, 0, 0, 0, 0, 59, 91, 0, 5, 0, 18, 0, 0, 0, 66, 0]
[74, 0, 0, 5, 27, 95, 86, 72, 0, 0, 0, 22, 35, 0, 0, 92, 38, 59, 37, 43, 39, 0, 70, 23, 90, 14, 71, 11, 40, 36, 61, 14, 3, 20, 0, 0, 0, 33, 76, 0, 0, 15]
[0, 68, 0, 8, 0, 0, 95, 29, 32, 0, 0, 35, 0, 0, 0, 44, 77, 96, 0, 0, 20, 7, 98, 53, 0, 19, 71, 0, 54, 39, 0, 0, 71, 42, 0, 76, 0, 15, 4, 0, 0, 71]
[71, 0, 0, 0, 0, 0, 19, 87, 0, 0, 0, 0, 0, 0, 26, 0, 0, 74, 59, 0, 31, 50, 70, 0, 0, 86, 0, 57, 0, 0, 0, 0, 0, 72, 14, 0, 0, 0, 0, 0, 0, 49]
[0, 12, 38, 0, 13, 57, 70, 0, 93, 55, 0, 0, 0, 26, 0, 66, 0, 18, 28, 17, 49, 0, 34, 62, 90, 12, 0, 0, 0, 0, 0, 0, 0, 71, 43, 0, 0, 6, 0, 5, 0, 0]
[0, 16, 0, 97, 29, 0, 0, 66, 0, 0, 32, 92, 44, 0, 66, 0, 86, 53, 0, 72, 0, 0, 95, 0, 76, 36, 0, 0, 87, 65, 0, 73, 0, 0, 60, 71, 1, 31, 0, 0, 35, 0]
[0, 0, 0, 0, 0, 0, 0, 0, 31, 3, 0, 38, 77, 0, 0, 86, 95, 0, 37, 31, 16, 0, 48, 73, 43, 81, 0, 0, 48, 93, 0, 10, 0, 0, 10, 6, 87, 3, 98, 0, 50, 87]
[24, 0, 0, 0, 72, 85, 8, 0, 97, 0, 0, 59, 96, 74, 18, 53, 0, 94, 58, 0, 0, 84, 0, 0, 45, 0, 1, 0, 52, 0, 5, 0, 74, 55, 0, 0, 0, 20, 32, 0, 0, 80]
[0, 0, 10, 0, 0, 17, 0, 0, 6, 7, 0, 37, 0, 59, 28, 0, 37, 58, 0, 63, 0, 36, 24, 78, 45, 15, 37, 95, 26, 0, 0, 0, 17, 23, 70, 0, 7, 89, 1, 0, 0, 65]
[68, 56, 93, 0, 0, 0, 0, 0, 89, 0, 0, 43, 0, 0, 17, 72, 31, 0, 63, 0, 70, 49, 0, 22, 0, 0, 0, 0, 0, 45, 80, 74, 0, 0, 32, 0, 94, 51, 58, 56, 0, 0]
[0, 6, 51, 0, 0, 0, 94, 0, 0, 0, 0, 39, 20, 31, 49, 0, 16, 0, 0, 70, 0, 0, 0, 0, 0, 24, 84, 0, 49, 0, 0, 0, 94, 0, 1, 86, 0, 75, 0, 0, 0, 83]
[91, 0, 58, 23, 0, 16, 0, 44, 30, 0, 31, 0, 7, 50, 0, 0, 0, 84, 36, 49, 0, 0, 0, 0, 43, 0, 0, 52, 99, 0, 79, 0, 52, 0, 0, 0, 0, 29, 0, 0, 42, 0]
[73, 0, 0, 0, 67, 0, 0, 11, 87, 91, 0, 70, 98, 70, 34, 95, 48, 0, 24, 0, 0, 0, 0, 63, 85, 0, 54, 0, 1, 52, 68, 15, 93, 27, 22, 93, 0, 0, 7, 39, 0, 0]
[0, 0, 44, 0, 26, 0, 50, 11, 83, 0, 58, 23, 53, 0, 62, 0, 73, 0, 78, 22, 0, 0, 63, 0, 94, 0, 0, 30, 0, 0, 28, 0, 0, 0, 0, 0, 4, 0, 0, 0, 20, 62]
[25, 97, 99, 71, 0, 40, 38, 37, 21, 47, 50, 90, 0, 0, 90, 76, 43, 45, 45, 0, 0, 43, 85, 94, 32, 0, 0, 0, 77, 0, 0, 50, 17, 0, 0, 0, 28, 0, 25, 0, 0, 0]
[27, 23, 70, 0, 0, 0, 28, 91, 1, 61, 61, 14, 19, 86, 12, 36, 81, 0, 15, 0, 24, 0, 0, 0, 0, 0, 0, 26, 29, 11, 0, 40, 66, 0, 0, 0, 0, 72, 15, 37, 0, 0]
[8, 0, 0, 0, 0, 0, 44, 0, 45, 0, 91, 71, 71, 0, 0, 0, 0, 1, 37, 0, 84, 0, 54, 0, 0, 0, 40, 99, 22, 0, 0, 8, 96, 6, 53, 0, 49, 0, 7, 0, 0, 3]
[0, 0, 89, 0, 64, 0, 22, 0, 0, 0, 0, 11, 0, 57, 0, 0, 0, 0, 95, 0, 0, 52, 0, 30, 0, 26, 99, 0, 0, 0, 0, 0, 22, 0, 0, 0, 0, 88, 27, 28, 26, 31]
[0, 2, 78, 56, 0, 0, 0, 32, 63, 0, 0, 40, 54, 0, 0, 87, 48, 52, 26, 0, 49, 99, 1, 0, 77, 29, 22, 0, 77, 1, 74, 0, 11, 54, 29, 88, 24, 88, 5, 18, 22, 42]
[92, 30, 0, 0, 22, 25, 12, 98, 10, 48, 0, 36, 39, 0, 0, 65, 93, 0, 0, 45, 0, 0, 52, 0, 0, 11, 0, 0, 1, 40, 30, 0, 0, 97, 0, 71, 82, 83, 0, 0, 75, 0]
[0, 0, 0, 0, 59, 0, 90, 0, 45, 5, 0, 61, 0, 0, 0, 0, 0, 5, 0, 80, 0, 79, 68, 28, 0, 0, 0, 0, 74, 30, 0, 56, 0, 96, 19, 87, 34, 94, 0, 0, 74, 86]
[53, 0, 1, 98, 0, 0, 24, 0, 21, 11, 59, 14, 0, 0, 0, 73, 10, 0, 0, 74, 0, 0, 15, 0, 50, 40, 8, 0, 0, 0, 56, 71, 39, 0, 72, 55, 69, 0, 0, 0, 0, 28]
[62, 94, 23, 87, 0, 47, 69, 68, 78, 51, 91, 3, 71, 0, 0, 0, 0, 74, 17, 0, 94, 52, 93, 0, 17, 66, 96, 22, 11, 0, 0, 39, 0, 0, 0, 58, 9, 62, 3, 17, 16, 0]
[0, 0, 0, 0, 96, 82, 0, 42, 0, 0, 0, 20, 42, 72, 71, 0, 0, 55, 23, 0, 0, 0, 27, 0, 0, 0, 6, 0, 54, 97, 96, 0, 0, 91, 0, 18, 67, 0, 86, 0, 85, 0]
[0, 38, 0, 0, 78, 44, 0, 0, 42, 23, 5, 0, 0, 14, 43, 60, 10, 0, 70, 32, 1, 0, 22, 0, 0, 0, 53, 0, 29, 0, 19, 72, 0, 0, 0, 4, 0, 39, 92, 0, 0, 35]
[0, 37, 0, 0, 0, 25, 0, 17, 66, 88, 0, 0, 76, 0, 0, 71, 6, 0, 0, 0, 86, 0, 93, 0, 0, 0, 0, 0, 88, 71, 87, 55, 58, 18, 4, 0, 0, 97, 45, 98, 48, 28]
[45, 0, 0, 0, 35, 19, 0, 2, 0, 0, 18, 0, 0, 0, 0, 1, 87, 0, 7, 94, 0, 0, 0, 4, 28, 0, 49, 0, 24, 82, 34, 69, 9, 67, 0, 0, 0, 0, 4, 0, 0, 0]
[0, 65, 0, 0, 0, 0, 0, 0, 60, 0, 0, 33, 15, 0, 6, 31, 3, 20, 89, 51, 75, 29, 0, 0, 0, 72, 0, 88, 88, 83, 94, 0, 62, 0, 39, 97, 0, 0, 0, 0, 24, 0]
[17, 0, 73, 18, 0, 0, 35, 83, 0, 0, 0, 76, 4, 0, 0, 0, 98, 32, 1, 58, 0, 0, 7, 0, 25, 15, 7, 27, 5, 0, 0, 0, 3, 86, 92, 45, 4, 0, 0, 85, 93, 0]
[93, 0, 0, 98, 0, 0, 70, 0, 0, 0, 0, 0, 0, 0, 5, 0, 0, 0, 0, 56, 0, 0, 39, 0, 0, 37, 0, 28, 18, 0, 0, 0, 17, 0, 0, 98, 0, 0, 85, 0, 0, 27]
[95, 0, 0, 0, 0, 0, 30, 60, 0, 80, 66, 0, 0, 0, 0, 35, 50, 0, 0, 0, 0, 42, 0, 20, 0, 0, 0, 26, 22, 75, 74, 0, 16, 85, 0, 48, 0, 24, 93, 0, 48, 0]
[0, 5, 0, 0, 0, 29, 0, 0, 20, 0, 0, 15, 71, 49, 0, 0, 87, 80, 65, 0, 83, 0, 0, 62, 0, 0, 3, 31, 42, 0, 86, 28, 0, 0, 35, 28, 0, 0, 0, 27, 0, 0]
